
Gurobi 7.5.1 (mac64, Python) logging started Tue Dec  5 10:31:37 2017

Academic license - for non-commercial use only

Gurobi 7.5.1 (mac64, Python) logging started Fri Dec  8 23:04:20 2017

Academic license - for non-commercial use only
